NAME :
TYPE : CCVRP
COMMENT :
DIMENSION : 324
CAPACITY : 1000
EDGE_WEIGHT_TYPE : EUC_2D_DBL
NODE_COORD_TYPE: TWOD_COORD
NODE_COORD_SECTION
1 0.0000 -17.0000
2 -1.0000 -16.0000
3 1.0000 -16.0000
4 -2.0000 -15.0000
5 0.0000 -15.0000
6 2.0000 -15.0000
7 -3.0000 -14.0000
8 -1.0000 -14.0000
9 1.0000 -14.0000
10 3.0000 -14.0000
11 -4.0000 -13.0000
12 -2.0000 -13.0000
13 0.0000 -13.0000
14 2.0000 -13.0000
15 4.0000 -13.0000
16 -5.0000 -12.0000
17 -3.0000 -12.0000
18 -1.0000 -12.0000
19 1.0000 -12.0000
20 3.0000 -12.0000
21 5.0000 -12.0000
22 -6.0000 -11.0000
23 -4.0000 -11.0000
24 -2.0000 -11.0000
25 0.0000 -11.0000
26 2.0000 -11.0000
27 4.0000 -11.0000
28 6.0000 -11.0000
29 -7.0000 -10.0000
30 -5.0000 -10.0000
31 -3.0000 -10.0000
32 -1.0000 -10.0000
33 1.0000 -10.0000
34 3.0000 -10.0000
35 5.0000 -10.0000
36 7.0000 -10.0000
37 -8.0000 -9.0000
38 -6.0000 -9.0000
39 -4.0000 -9.0000
40 -2.0000 -9.0000
41 0.0000 -9.0000
42 2.0000 -9.0000
43 4.0000 -9.0000
44 6.0000 -9.0000
45 8.0000 -9.0000
46 -9.0000 -8.0000
47 -7.0000 -8.0000
48 -5.0000 -8.0000
49 -3.0000 -8.0000
50 -1.0000 -8.0000
51 1.0000 -8.0000
52 3.0000 -8.0000
53 5.0000 -8.0000
54 7.0000 -8.0000
55 9.0000 -8.0000
56 -10.0000 -7.0000
57 -8.0000 -7.0000
58 -6.0000 -7.0000
59 -4.0000 -7.0000
60 -2.0000 -7.0000
61 0.0000 -7.0000
62 2.0000 -7.0000
63 4.0000 -7.0000
64 6.0000 -7.0000
65 8.0000 -7.0000
66 10.0000 -7.0000
67 -11.0000 -6.0000
68 -9.0000 -6.0000
69 -7.0000 -6.0000
70 -5.0000 -6.0000
71 -3.0000 -6.0000
72 -1.0000 -6.0000
73 1.0000 -6.0000
74 3.0000 -6.0000
75 5.0000 -6.0000
76 7.0000 -6.0000
77 9.0000 -6.0000
78 11.0000 -6.0000
79 -12.0000 -5.0000
80 -10.0000 -5.0000
81 -8.0000 -5.0000
82 -6.0000 -5.0000
83 -4.0000 -5.0000
84 -2.0000 -5.0000
85 0.0000 -5.0000
86 2.0000 -5.0000
87 4.0000 -5.0000
88 6.0000 -5.0000
89 8.0000 -5.0000
90 10.0000 -5.0000
91 12.0000 -5.0000
92 -13.0000 -4.0000
93 -11.0000 -4.0000
94 -9.0000 -4.0000
95 -7.0000 -4.0000
96 -5.0000 -4.0000
97 -3.0000 -4.0000
98 -1.0000 -4.0000
99 1.0000 -4.0000
100 3.0000 -4.0000
101 5.0000 -4.0000
102 7.0000 -4.0000
103 9.0000 -4.0000
104 11.0000 -4.0000
105 13.0000 -4.0000
106 -14.0000 -3.0000
107 -12.0000 -3.0000
108 -10.0000 -3.0000
109 -8.0000 -3.0000
110 -6.0000 -3.0000
111 -4.0000 -3.0000
112 -2.0000 -3.0000
113 0.0000 -3.0000
114 2.0000 -3.0000
115 4.0000 -3.0000
116 6.0000 -3.0000
117 8.0000 -3.0000
118 10.0000 -3.0000
119 12.0000 -3.0000
120 14.0000 -3.0000
121 -15.0000 -2.0000
122 -13.0000 -2.0000
123 -11.0000 -2.0000
124 -9.0000 -2.0000
125 -7.0000 -2.0000
126 -5.0000 -2.0000
127 -3.0000 -2.0000
128 -1.0000 -2.0000
129 1.0000 -2.0000
130 3.0000 -2.0000
131 5.0000 -2.0000
132 7.0000 -2.0000
133 9.0000 -2.0000
134 11.0000 -2.0000
135 13.0000 -2.0000
136 15.0000 -2.0000
137 -16.0000 -1.0000
138 -14.0000 -1.0000
139 -12.0000 -1.0000
140 -10.0000 -1.0000
141 -8.0000 -1.0000
142 -6.0000 -1.0000
143 -4.0000 -1.0000
144 -2.0000 -1.0000
145 0.0000 -1.0000
146 2.0000 -1.0000
147 4.0000 -1.0000
148 6.0000 -1.0000
149 8.0000 -1.0000
150 10.0000 -1.0000
151 12.0000 -1.0000
152 14.0000 -1.0000
153 16.0000 -1.0000
154 -17.0000 0.0000
155 -15.0000 0.0000
156 -13.0000 0.0000
157 -11.0000 0.0000
158 -9.0000 0.0000
159 -7.0000 0.0000
160 -5.0000 0.0000
161 -3.0000 0.0000
162 -1.0000 0.0000
163 1.0000 0.0000
164 3.0000 0.0000
165 5.0000 0.0000
166 7.0000 0.0000
167 9.0000 0.0000
168 11.0000 0.0000
169 13.0000 0.0000
170 15.0000 0.0000
171 17.0000 0.0000
172 -16.0000 1.0000
173 -14.0000 1.0000
174 -12.0000 1.0000
175 -10.0000 1.0000
176 -8.0000 1.0000
177 -6.0000 1.0000
178 -4.0000 1.0000
179 -2.0000 1.0000
180 0.0000 1.0000
181 2.0000 1.0000
182 4.0000 1.0000
183 6.0000 1.0000
184 8.0000 1.0000
185 10.0000 1.0000
186 12.0000 1.0000
187 14.0000 1.0000
188 16.0000 1.0000
189 -15.0000 2.0000
190 -13.0000 2.0000
191 -11.0000 2.0000
192 -9.0000 2.0000
193 -7.0000 2.0000
194 -5.0000 2.0000
195 -3.0000 2.0000
196 -1.0000 2.0000
197 1.0000 2.0000
198 3.0000 2.0000
199 5.0000 2.0000
200 7.0000 2.0000
201 9.0000 2.0000
202 11.0000 2.0000
203 13.0000 2.0000
204 15.0000 2.0000
205 -14.0000 3.0000
206 -12.0000 3.0000
207 -10.0000 3.0000
208 -8.0000 3.0000
209 -6.0000 3.0000
210 -4.0000 3.0000
211 -2.0000 3.0000
212 0.0000 3.0000
213 2.0000 3.0000
214 4.0000 3.0000
215 6.0000 3.0000
216 8.0000 3.0000
217 10.0000 3.0000
218 12.0000 3.0000
219 14.0000 3.0000
220 -13.0000 4.0000
221 -11.0000 4.0000
222 -9.0000 4.0000
223 -7.0000 4.0000
224 -5.0000 4.0000
225 -3.0000 4.0000
226 -1.0000 4.0000
227 1.0000 4.0000
228 3.0000 4.0000
229 5.0000 4.0000
230 7.0000 4.0000
231 9.0000 4.0000
232 11.0000 4.0000
233 13.0000 4.0000
234 -12.0000 5.0000
235 -10.0000 5.0000
236 -8.0000 5.0000
237 -6.0000 5.0000
238 -4.0000 5.0000
239 -2.0000 5.0000
240 0.0000 5.0000
241 2.0000 5.0000
242 4.0000 5.0000
243 6.0000 5.0000
244 8.0000 5.0000
245 10.0000 5.0000
246 12.0000 5.0000
247 -11.0000 6.0000
248 -9.0000 6.0000
249 -7.0000 6.0000
250 -5.0000 6.0000
251 -3.0000 6.0000
252 -1.0000 6.0000
253 1.0000 6.0000
254 3.0000 6.0000
255 5.0000 6.0000
256 7.0000 6.0000
257 9.0000 6.0000
258 11.0000 6.0000
259 -10.0000 7.0000
260 -8.0000 7.0000
261 -6.0000 7.0000
262 -4.0000 7.0000
263 -2.0000 7.0000
264 0.0000 7.0000
265 2.0000 7.0000
266 4.0000 7.0000
267 6.0000 7.0000
268 8.0000 7.0000
269 10.0000 7.0000
270 -9.0000 8.0000
271 -7.0000 8.0000
272 -5.0000 8.0000
273 -3.0000 8.0000
274 -1.0000 8.0000
275 1.0000 8.0000
276 3.0000 8.0000
277 5.0000 8.0000
278 7.0000 8.0000
279 9.0000 8.0000
280 -8.0000 9.0000
281 -6.0000 9.0000
282 -4.0000 9.0000
283 -2.0000 9.0000
284 0.0000 9.0000
285 2.0000 9.0000
286 4.0000 9.0000
287 6.0000 9.0000
288 8.0000 9.0000
289 -7.0000 10.0000
290 -5.0000 10.0000
291 -3.0000 10.0000
292 -1.0000 10.0000
293 1.0000 10.0000
294 3.0000 10.0000
295 5.0000 10.0000
296 7.0000 10.0000
297 -6.0000 11.0000
298 -4.0000 11.0000
299 -2.0000 11.0000
300 0.0000 11.0000
301 2.0000 11.0000
302 4.0000 11.0000
303 6.0000 11.0000
304 -5.0000 12.0000
305 -3.0000 12.0000
306 -1.0000 12.0000
307 1.0000 12.0000
308 3.0000 12.0000
309 5.0000 12.0000
310 -4.0000 13.0000
311 -2.0000 13.0000
312 0.0000 13.0000
313 2.0000 13.0000
314 4.0000 13.0000
315 -3.0000 14.0000
316 -1.0000 14.0000
317 1.0000 14.0000
318 3.0000 14.0000
319 -2.0000 15.0000
320 0.0000 15.0000
321 2.0000 15.0000
322 -1.0000 16.0000
323 1.0000 16.0000
324 0.0000 17.0000
DEMAND_SECTION
1 0
2 300
3 300
4 180
5 300
6 180
7 128
8 180
9 180
10 128
11 100
12 128
13 180
14 128
15 100
16 81
17 100
18 128
19 128
20 100
21 81
22 69
23 81
24 100
25 128
26 100
27 81
28 69
29 60
30 69
31 81
32 100
33 100
34 81
35 69
36 60
37 52
38 60
39 69
40 81
41 100
42 81
43 69
44 60
45 52
46 47
47 52
48 60
49 69
50 81
51 81
52 69
53 60
54 52
55 47
56 42
57 47
58 52
59 60
60 69
61 81
62 69
63 60
64 52
65 47
66 42
67 39
68 42
69 47
70 52
71 60
72 69
73 69
74 60
75 52
76 47
77 42
78 39
79 36
80 39
81 42
82 47
83 52
84 60
85 69
86 60
87 52
88 47
89 42
90 39
91 36
92 33
93 36
94 39
95 42
96 47
97 52
98 60
99 60
100 52
101 47
102 42
103 39
104 36
105 33
106 31
107 33
108 36
109 39
110 42
111 47
112 52
113 60
114 52
115 47
116 42
117 39
118 36
119 33
120 31
121 29
122 31
123 33
124 36
125 39
126 42
127 47
128 52
129 52
130 47
131 42
132 39
133 36
134 33
135 31
136 29
137 27
138 29
139 31
140 33
141 36
142 39
143 42
144 47
145 52
146 47
147 42
148 39
149 36
150 33
151 31
152 29
153 27
154 25
155 27
156 29
157 31
158 33
159 36
160 39
161 42
162 47
163 47
164 42
165 39
166 36
167 33
168 31
169 29
170 27
171 25
172 25
173 27
174 29
175 31
176 33
177 36
178 39
179 42
180 47
181 42
182 39
183 36
184 33
185 31
186 29
187 27
188 25
189 25
190 27
191 29
192 31
193 33
194 36
195 39
196 42
197 42
198 39
199 36
200 33
201 31
202 29
203 27
204 25
205 25
206 27
207 29
208 31
209 33
210 36
211 39
212 42
213 39
214 36
215 33
216 31
217 29
218 27
219 25
220 25
221 27
222 29
223 31
224 33
225 36
226 39
227 39
228 36
229 33
230 31
231 29
232 27
233 25
234 25
235 27
236 29
237 31
238 33
239 36
240 39
241 36
242 33
243 31
244 29
245 27
246 25
247 25
248 27
249 29
250 31
251 33
252 36
253 36
254 33
255 31
256 29
257 27
258 25
259 25
260 27
261 29
262 31
263 33
264 36
265 33
266 31
267 29
268 27
269 25
270 25
271 27
272 29
273 31
274 33
275 33
276 31
277 29
278 27
279 25
280 25
281 27
282 29
283 31
284 33
285 31
286 29
287 27
288 25
289 25
290 27
291 29
292 31
293 31
294 29
295 27
296 25
297 25
298 27
299 29
300 31
301 29
302 27
303 25
304 25
305 27
306 29
307 29
308 27
309 25
310 25
311 27
312 29
313 27
314 25
315 25
316 27
317 27
318 25
319 25
320 27
321 25
322 25
323 25
324 25
CLUSTER_SECTION
1 34
2 2
3 3
4 2
5 4
6 5
7 6
8 4
9 5
10 5
11 6
12 6
13 7
14 8
15 8
16 6
17 9
18 7
19 7
20 8
21 10
22 11
23 9
24 9
25 8
26 12
27 10
28 10
29 11
30 9
31 9
32 13
33 12
34 10
35 10
36 10
37 11
38 11
39 11
40 13
41 12
42 12
43 12
44 14
45 14
46 15
47 11
48 11
49 13
50 13
51 13
52 14
53 14
54 14
55 14
56 15
57 15
58 15
59 16
60 13
61 17
62 17
63 14
64 14
65 14
66 18
67 15
68 15
69 15
70 15
71 16
72 16
73 17
74 17
75 19
76 18
77 18
78 18
79 15
80 15
81 15
82 16
83 16
84 16
85 17
86 17
87 19
88 18
89 18
90 18
91 18
92 20
93 20
94 20
95 21
96 16
97 16
98 17
99 19
100 19
101 19
102 18
103 18
104 18
105 18
106 20
107 20
108 20
109 21
110 21
111 21
112 22
113 22
114 19
115 19
116 19
117 19
118 23
119 23
120 23
121 20
122 20
123 20
124 20
125 21
126 21
127 21
128 22
129 22
130 19
131 24
132 23
133 23
134 23
135 23
136 25
137 20
138 20
139 20
140 20
141 21
142 21
143 21
144 22
145 22
146 22
147 24
148 23
149 23
150 23
151 23
152 23
153 25
154 26
155 20
156 26
157 26
158 21
159 21
160 22
161 22
162 22
163 24
164 24
165 24
166 24
167 23
168 23
169 25
170 25
171 25
172 26
173 26
174 26
175 26
176 26
177 26
178 27
179 27
180 27
181 24
182 24
183 24
184 24
185 25
186 25
187 25
188 25
189 26
190 26
191 26
192 1
193 1
194 27
195 27
196 27
197 28
198 24
199 24
200 29
201 25
202 25
203 25
204 25
205 26
206 26
207 1
208 1
209 1
210 27
211 27
212 27
213 28
214 28
215 29
216 29
217 25
218 25
219 25
220 26
221 1
222 1
223 1
224 27
225 27
226 27
227 28
228 28
229 28
230 29
231 29
232 25
233 25
234 26
235 1
236 1
237 1
238 30
239 28
240 28
241 28
242 28
243 29
244 29
245 29
246 29
247 26
248 1
249 1
250 30
251 30
252 28
253 28
254 28
255 29
256 29
257 29
258 29
259 1
260 1
261 1
262 30
263 30
264 30
265 31
266 29
267 29
268 29
269 29
270 26
271 30
272 30
273 30
274 30
275 30
276 31
277 31
278 31
279 32
280 30
281 30
282 30
283 30
284 30
285 31
286 31
287 31
288 32
289 33
290 33
291 31
292 31
293 31
294 31
295 31
296 31
297 33
298 33
299 31
300 31
301 31
302 31
303 32
304 33
305 32
306 32
307 32
308 32
309 32
310 33
311 32
312 32
313 32
314 32
315 33
316 32
317 32
318 32
319 33
320 32
321 32
322 33
323 32
324 33
DEPOT_SECTION
1
-1
EOF
